p tw 140 156
1 2
2 53
3 14
4 26
5 6
6 7
6 26
7 8
8 9
9 10
10 11
11 12
12 13
13 15
14 25
15 16
16 17
17 18
18 19
19 20
20 21
21 22
22 23
23 24
24 26
25 36
26 27
27 28
28 29
29 30
30 31
31 32
31 37
32 33
33 34
33 37
34 35
35 37
35 43
36 47
37 38
38 39
39 40
40 41
41 42
42 45
43 44
44 45
45 46
47 48
48 49
49 50
49 55
50 51
50 55
51 52
51 55
52 54
53 64
54 45
55 56
56 57
57 58
57 65
58 59
58 65
59 60
60 61
61 62
62 63
63 45
64 75
65 66
66 67
66 69
67 68
68 71
69 70
70 71
71 72
72 73
73 74
74 76
75 86
76 77
76 82
77 78
77 82
78 79
79 80
80 81
81 26
82 83
83 84
83 109
84 85
85 87
86 97
87 88
88 89
89 90
90 91
91 92
92 93
93 94
94 95
95 96
96 98
97 108
98 99
99 100
100 101
101 102
102 103
103 104
104 105
105 106
106 107
107 26
108 119
108 130
109 110
110 111
110 116
111 112
111 116
112 113
113 114
114 115
115 26
116 117
117 118
117 5
118 120
119 45
120 121
121 122
122 123
123 124
124 125
125 126
126 127
127 128
128 129
129 131
130 3
131 132
132 133
133 134
134 135
135 136
136 137
137 138
138 139
139 140
140 4
